
Gurobi 11.0.3 (linux64) logging started Sun Aug 24 14:34:33 2025

Set parameter LogFile to value "/home/yihong/Coding/OR_SUC/SUC_ALSO_results_bigM100000_thread4/case24_ieee_rts_theta0.1_epsilon0.2_gurobi_seed30000_num_gen10_N_WDR50_load_scaling_factor2_proposed_T2quadra_cost.txt"
Set parameter TimeLimit to value 3600
Gurobi Optimizer version 11.0.3 build v11.0.3rc0 (linux64 - "Ubuntu 20.04.6 LTS")

CPU model: AMD EPYC 7532 32-Core Processor, instruction set [SSE2|AVX|AVX2]
Thread count: 64 physical cores, 128 logical processors, using up to 4 threads

Academic license 2399124 - for non-commercial use only - registered to yi___@ed.ac.uk
Optimize a model with 2150 rows, 371 columns and 37134 nonzeros
Model fingerprint: 0x138ecc72
Model has 20 quadratic constraints
Variable types: 351 continuous, 20 integer (20 binary)
Coefficient statistics:
  Matrix range     [4e-04, 4e+04]
  QMatrix range    [2e-03, 8e-03]
  QLMatrix range   [1e+00, 4e+02]
  Objective range  [1e+00, 1e+00]
  Bounds range     [1e+00, 1e+00]
  RHS range        [7e-01, 1e+04]
Presolve removed 1302 rows and 176 columns
Presolve time: 0.02s
Presolved: 848 rows, 195 columns, 15436 nonzeros
Presolved model has 20 quadratic constraint(s)
Variable types: 175 continuous, 20 integer (20 binary)

Root relaxation: objective 4.091717e+03, 124 iterations, 0.00 seconds (0.01 work units)

    Nodes    |    Current Node    |     Objective Bounds      |     Work
 Expl Unexpl |  Obj  Depth IntInf | Incumbent    BestBd   Gap | It/Node Time

     0     0 4091.71740    0    4          - 4091.71740      -     -    0s
     0     0 123893.782    0    8          - 123893.782      -     -    0s
     0     0 124427.932    0    6          - 124427.932      -     -    0s
     0     0 127674.625    0   10          - 127674.625      -     -    0s
     0     0 131050.044    0    8          - 131050.044      -     -    0s
H    0     0                    140303.61949 131050.044  6.60%     -    0s
     0     0 139784.973    0    2 140303.619 139784.973  0.37%     -    0s
H    0     0                    139787.71728 139784.973  0.00%     -    0s
*    0     0               0    139787.71728 139784.973  0.00%     -    0s

Cutting planes:
  Gomory: 1
  Implied bound: 2
  MIR: 2
  Flow cover: 8

Explored 1 nodes (296 simplex iterations) in 0.27 seconds (0.29 work units)
Thread count was 4 (of 128 available processors)

Solution count 2: 139788 140304 

Optimal solution found (tolerance 1.00e-03)
Warning: max constraint violation (2.3147e-09) exceeds tolerance
Best objective 1.397877172821e+05, best bound 1.397849727814e+05, gap 0.0020%
